Minimize
  0.0769230769230769 y_0 + 0.125 y_1 + 0.1666666666666667 y_2 + 0.1 y_3
   + 0.125 y_4 + 0.0714285714285714 y_5 + 0.1 y_6 + 0.125 y_7
   + 0.1428571428571428 y_8 + 0.1111111111111111 y_9 + 0.1 y_10
   + 0.0714285714285714 y_11 + 0.1666666666666667 y_12
   + 0.1111111111111111 y_13 + 0.2 y_14 + 0.1 y_15
   + 0.1666666666666667 y_16 + 0.0769230769230769 y_17 + 0.125 y_18
   + 0.1428571428571428 y_19 + 0.0909090909090909 y_20 + 0.1 y_21
   + 0.0833333333333333 y_22 + 0.1111111111111111 y_23
   + 0.1111111111111111 y_24 + 0.0909090909090909 y_25 + 0.2 y_26
   + 0.1 y_27 + 0.0909090909090909 y_28 + 0.0909090909090909 y_29
   + 0.0833333333333333 y_30 + 0.1111111111111111 y_31
   + 0.3333333333333333 y_32 + 0.1111111111111111 y_33
   + 0.1666666666666667 y_34 + 0.2 y_35 + 0.0833333333333333 y_36
   + 0.3333333333333333 y_37 + 0.125 y_38 + 0.1111111111111111 y_39
   + 0.125 y_40 + 0.3333333333333333 y_41 + 0.25 y_42 + 0.1 y_43
   + 0.125 y_44 + 0.125 y_45 + 0.25 y_46 + 0.125 y_47
   + 0.3333333333333333 y_48 + 0.0714285714285714 y_49
   + 0.0833333333333333 y_50 + 0.25 y_51 + 0.125 y_52
   + 0.1111111111111111 y_53 + 0.0909090909090909 y_54
   + 0.1111111111111111 y_55 + 0.1428571428571428 y_56
   + 0.0909090909090909 y_57 + 0.0833333333333333 y_58
   + 0.0909090909090909 y_59 + 0.1 y_60 + 0.125 y_61
   + 0.0909090909090909 y_62 + 0.0769230769230769 y_63
   + 0.0909090909090909 y_64 + 0.0833333333333333 y_65
   + 0.1111111111111111 y_66 + 0.2 y_67 + 0.1 y_68
   + 0.0909090909090909 y_69 + 0.0909090909090909 y_70
   + 0.0769230769230769 y_71 + 0.3333333333333333 y_72
   + 0.0909090909090909 y_73 + 0.1 y_74 + 0.0909090909090909 y_75
   + 0.0909090909090909 y_76 + 0.0666666666666667 y_77
   + 0.1428571428571428 y_78 + y_79 + 0.1428571428571428 y_80
   + 0.0833333333333333 y_81 + 0.1 y_82 + 0.0666666666666667 y_83
   + 0.125 y_84 + 0.0833333333333333 y_85 + 0.125 y_86 + 0.125 y_87
   + 0.1666666666666667 y_88 + 0.25 y_89 + 0.1111111111111111 y_90
   + 0.1666666666666667 y_91 + 0.1111111111111111 y_92
   + 0.1666666666666667 y_93 + 0.1666666666666667 y_94
   + 0.1666666666666667 y_95 + 0.25 y_96 + 0.2 y_97 + 0.125 y_98
   + 0.0769230769230769 y_99 - 14.11091408591408 Constant
Subject To
 c_0: y_30 = 1
 c_1_0: y_0 + y_30 + y_49 + y_62 + y_76 + y_77 + y_81 + y_83 + y_85 >= 1
 c_1_1: y_1 + y_2 + y_3 + y_9 + y_16 + y_28 + y_35 + y_39 + y_56 + y_65
   + y_68 + y_74 + y_78 + y_86 + y_90 >= 1
 c_1_2: y_1 + y_2 + y_3 + y_9 + y_16 + y_35 + y_37 + y_39 + y_42 + y_46
   + y_48 + y_51 + y_56 + y_68 + y_74 + y_78 + y_86 + y_90 + y_97 >= 1
 c_1_3: y_1 + y_2 + y_3 + y_4 + y_6 + y_9 + y_39 + y_56 + y_74 + y_76
   + y_78 + y_90 >= 1
 c_1_4: y_3 + y_4 + y_6 + y_7 + y_30 + y_42 + y_51 + y_67 + y_76 + y_78
   + y_93 + y_97 >= 1
 c_1_5: y_5 + y_11 + y_22 + y_36 + y_43 + y_63 >= 1
 c_1_6: y_3 + y_4 + y_6 + y_30 + y_76 >= 1
 c_1_7: y_4 + y_7 + y_15 + y_30 + y_62 + y_67 + y_81 + y_85 + y_93 >= 1
 c_1_8: y_8 + y_26 + y_31 + y_43 + y_45 + y_57 + y_84 + y_91 + y_96 + y_98
   >= 1
 c_1_9: y_1 + y_2 + y_3 + y_9 + y_28 + y_35 + y_39 + y_56 + y_65 + y_68
   + y_74 + y_78 + y_86 + y_90 >= 1
 c_1_10: y_10 + y_18 + y_24 + y_40 + y_47 + y_54 + y_55 + y_69 + y_70 >= 1
 c_1_11: y_5 + y_11 + y_43 + y_63 + y_99 >= 1
 c_1_12: y_12 + y_13 + y_26 + y_34 + y_38 + y_45 + y_72 + y_88 + y_89
   + y_95 >= 1
 c_1_13: y_12 + y_13 + y_21 + y_27 + y_33 + y_34 + y_38 + y_52 + y_59
   + y_80 + y_82 + y_88 + y_95 >= 1
 c_1_14: y_14 + y_18 + y_32 + y_33 + y_34 + y_52 + y_72 + y_80 + y_88
   + y_89 + y_95 >= 1
 c_1_15: y_7 + y_15 + y_25 + y_29 + y_73 + y_75 + y_81 >= 1
 c_1_16: y_1 + y_2 + y_16 + y_19 + y_23 + y_35 + y_37 + y_39 + y_46 + y_48
   + y_51 + y_53 + y_56 + y_61 + y_66 + y_78 + y_86 + y_92 + y_94 >= 1
 c_1_17: y_17 + y_20 + y_28 + y_50 + y_65 + y_71 >= 1
 c_1_18: y_10 + y_14 + y_18 + y_24 + y_33 + y_40 + y_47 + y_52 + y_54
   + y_55 + y_64 + y_69 + y_70 + y_80 >= 1
 c_1_19: y_16 + y_19 + y_23 + y_32 + y_35 + y_37 + y_44 + y_46 + y_53
   + y_56 + y_60 + y_61 + y_66 + y_86 + y_87 + y_92 + y_94 >= 1
 c_1_20: y_17 + y_20 + y_23 + y_28 + y_39 + y_50 + y_61 + y_65 + y_68
   + y_71 + y_86 + y_92 >= 1
 c_1_21: y_13 + y_21 + y_27 + y_33 + y_34 + y_36 + y_38 + y_52 + y_59
   + y_82 + y_88 + y_95 >= 1
 c_1_22: y_5 + y_22 + y_36 + y_63 >= 1
 c_1_23: y_16 + y_19 + y_20 + y_23 + y_50 + y_53 + y_60 + y_61 + y_66
   + y_86 + y_87 + y_92 + y_94 >= 1
 c_1_24: y_10 + y_18 + y_24 + y_33 + y_40 + y_52 + y_55 + y_64 + y_69
   + y_70 + y_80 >= 1
 c_1_25: y_15 + y_25 + y_29 + y_31 + y_57 + y_58 + y_73 + y_75 + y_84
   + y_98 >= 1
 c_1_26: y_8 + y_12 + y_26 + y_31 + y_41 + y_45 + y_72 + y_84 + y_88 + y_89
   + y_91 + y_96 + y_98 >= 1
 c_1_27: y_13 + y_21 + y_27 + y_33 + y_38 + y_52 + y_59 + y_82 >= 1
 c_1_28: y_1 + y_9 + y_17 + y_20 + y_28 + y_39 + y_56 + y_65 + y_68 + y_74
   + y_86 + y_90 + y_92 >= 1
 c_1_29: y_15 + y_25 + y_29 + y_57 + y_58 + y_73 + y_75 >= 1
 c_1_30: y_0 + y_4 + y_6 + y_7 + y_30 + y_49 + y_62 + y_76 + y_77 + y_81
   + y_83 + y_85 >= 1
 c_1_31: y_8 + y_25 + y_26 + y_31 + y_43 + y_45 + y_57 + y_58 + y_84 + y_91
   + y_98 >= 1
 c_1_32: y_14 + y_19 + y_32 + y_37 + y_46 + y_48 + y_72 + y_79 + y_89
   + y_94 >= 1
 c_1_33: y_13 + y_14 + y_18 + y_21 + y_24 + y_27 + y_33 + y_34 + y_38
   + y_52 + y_59 + y_64 + y_70 + y_80 + y_82 + y_95 >= 1
 c_1_34: y_12 + y_13 + y_14 + y_21 + y_33 + y_34 + y_38 + y_52 + y_80
   + y_82 + y_88 + y_89 + y_95 >= 1
 c_1_35: y_1 + y_2 + y_9 + y_16 + y_19 + y_35 + y_37 + y_39 + y_42 + y_46
   + y_48 + y_51 + y_56 + y_78 + y_86 + y_90 + y_97 >= 1
 c_1_36: y_5 + y_21 + y_22 + y_36 + y_63 >= 1
 c_1_37: y_2 + y_16 + y_19 + y_32 + y_35 + y_37 + y_42 + y_46 + y_48 + y_51
   + y_72 + y_79 + y_94 >= 1
 c_1_38: y_12 + y_13 + y_21 + y_27 + y_33 + y_34 + y_38 + y_52 + y_59
   + y_80 + y_82 + y_88 + y_95 >= 1
 c_1_39: y_1 + y_2 + y_3 + y_9 + y_16 + y_20 + y_28 + y_35 + y_39 + y_56
   + y_61 + y_65 + y_68 + y_74 + y_78 + y_86 + y_90 + y_92 >= 1
 c_1_40: y_10 + y_18 + y_24 + y_40 + y_44 + y_47 + y_54 + y_55 + y_69
   + y_70 >= 1
 c_1_41: y_26 + y_41 + y_42 + y_48 + y_51 + y_67 + y_72 + y_79 + y_89
   + y_91 + y_93 + y_96 + y_97 >= 1
 c_1_42: y_2 + y_4 + y_35 + y_37 + y_41 + y_42 + y_46 + y_48 + y_51 + y_56
   + y_67 + y_78 + y_79 + y_93 + y_96 + y_97 >= 1
 c_1_43: y_5 + y_8 + y_11 + y_31 + y_43 + y_45 + y_57 + y_63 + y_99 >= 1
 c_1_44: y_19 + y_40 + y_44 + y_47 + y_53 + y_60 + y_66 + y_87 + y_94 >= 1
 c_1_45: y_8 + y_12 + y_26 + y_31 + y_43 + y_45 + y_84 + y_88 + y_91 + y_98
   >= 1
 c_1_46: y_2 + y_16 + y_19 + y_32 + y_35 + y_37 + y_42 + y_46 + y_48 + y_51
   + y_56 + y_78 + y_79 + y_94 + y_97 >= 1
 c_1_47: y_10 + y_18 + y_40 + y_44 + y_47 + y_54 + y_55 + y_87 + y_94 >= 1
 c_1_48: y_2 + y_16 + y_32 + y_35 + y_37 + y_41 + y_42 + y_46 + y_48 + y_51
   + y_56 + y_67 + y_72 + y_78 + y_79 + y_97 >= 1
 c_1_49: y_0 + y_30 + y_49 + y_62 + y_77 + y_81 + y_83 + y_85 >= 1
 c_1_50: y_17 + y_20 + y_23 + y_50 + y_65 + y_71 + y_92 >= 1
 c_1_51: y_2 + y_4 + y_16 + y_35 + y_37 + y_41 + y_42 + y_46 + y_48 + y_51
   + y_56 + y_67 + y_78 + y_79 + y_93 + y_96 + y_97 >= 1
 c_1_52: y_13 + y_14 + y_18 + y_21 + y_24 + y_27 + y_33 + y_34 + y_38
   + y_52 + y_59 + y_80 + y_82 + y_88 + y_89 + y_95 >= 1
 c_1_53: y_16 + y_19 + y_23 + y_44 + y_53 + y_60 + y_61 + y_66 + y_86
   + y_87 + y_92 + y_94 >= 1
 c_1_54: y_10 + y_18 + y_40 + y_47 + y_54 + y_55 + y_69 >= 1
 c_1_55: y_10 + y_18 + y_24 + y_40 + y_47 + y_54 + y_55 + y_69 + y_70 >= 1
 c_1_56: y_1 + y_2 + y_3 + y_9 + y_16 + y_19 + y_28 + y_35 + y_39 + y_42
   + y_46 + y_48 + y_51 + y_56 + y_68 + y_74 + y_78 + y_86 + y_90 + y_97
   >= 1
 c_1_57: y_8 + y_25 + y_29 + y_31 + y_43 + y_57 + y_58 + y_84 + y_98 + y_99
   >= 1
 c_1_58: y_25 + y_29 + y_31 + y_57 + y_58 + y_73 + y_75 + y_98 + y_99 >= 1
 c_1_59: y_13 + y_21 + y_27 + y_33 + y_38 + y_52 + y_59 + y_82 >= 1
 c_1_60: y_19 + y_23 + y_44 + y_53 + y_60 + y_61 + y_66 + y_87 + y_92
   + y_94 >= 1
 c_1_61: y_16 + y_19 + y_20 + y_23 + y_39 + y_53 + y_60 + y_61 + y_66
   + y_86 + y_87 + y_92 + y_94 >= 1
 c_1_62: y_0 + y_7 + y_30 + y_49 + y_62 + y_76 + y_77 + y_81 + y_83 + y_85
   >= 1
 c_1_63: y_5 + y_11 + y_22 + y_36 + y_43 + y_63 >= 1
 c_1_64: y_18 + y_24 + y_33 + y_64 + y_69 + y_70 + y_80 >= 1
 c_1_65: y_1 + y_9 + y_17 + y_20 + y_28 + y_39 + y_50 + y_65 + y_68 + y_71
   + y_74 + y_86 >= 1
 c_1_66: y_16 + y_19 + y_23 + y_44 + y_53 + y_60 + y_61 + y_66 + y_86
   + y_87 + y_92 + y_94 >= 1
 c_1_67: y_4 + y_7 + y_41 + y_42 + y_48 + y_51 + y_67 + y_72 + y_79 + y_91
   + y_93 + y_96 + y_97 >= 1
 c_1_68: y_1 + y_2 + y_9 + y_20 + y_28 + y_39 + y_56 + y_65 + y_68 + y_74
   + y_78 + y_86 + y_90 + y_92 >= 1
 c_1_69: y_10 + y_18 + y_24 + y_40 + y_54 + y_55 + y_64 + y_69 + y_70 >= 1
 c_1_70: y_10 + y_18 + y_24 + y_33 + y_40 + y_55 + y_64 + y_69 + y_70
   + y_80 >= 1
 c_1_71: y_17 + y_20 + y_50 + y_65 + y_71 >= 1
 c_1_72: y_12 + y_14 + y_26 + y_32 + y_37 + y_41 + y_48 + y_67 + y_72
   + y_79 + y_88 + y_89 + y_91 + y_95 + y_96 >= 1
 c_1_73: y_15 + y_25 + y_29 + y_58 + y_73 + y_75 >= 1
 c_1_74: y_1 + y_2 + y_3 + y_9 + y_28 + y_39 + y_56 + y_65 + y_68 + y_74
   + y_78 + y_90 >= 1
 c_1_75: y_15 + y_25 + y_29 + y_58 + y_73 + y_75 + y_84 + y_98 >= 1
 c_1_76: y_0 + y_3 + y_4 + y_6 + y_30 + y_62 + y_76 + y_85 >= 1
 c_1_77: y_0 + y_30 + y_49 + y_62 + y_77 + y_81 + y_83 + y_85 >= 1
 c_1_78: y_1 + y_2 + y_3 + y_4 + y_9 + y_16 + y_35 + y_39 + y_42 + y_46
   + y_48 + y_51 + y_56 + y_68 + y_74 + y_78 + y_86 + y_90 + y_97 >= 1
 c_1_79: y_32 + y_37 + y_41 + y_42 + y_46 + y_48 + y_51 + y_67 + y_72
   + y_79 + y_89 + y_96 >= 1
 c_1_80: y_13 + y_14 + y_18 + y_24 + y_33 + y_34 + y_38 + y_52 + y_64
   + y_70 + y_80 + y_82 + y_88 + y_89 + y_95 >= 1
 c_1_81: y_0 + y_7 + y_15 + y_30 + y_49 + y_62 + y_77 + y_81 + y_83 + y_85
   >= 1
 c_1_82: y_13 + y_21 + y_27 + y_33 + y_34 + y_38 + y_52 + y_59 + y_80
   + y_82 >= 1
 c_1_83: y_0 + y_30 + y_49 + y_62 + y_77 + y_81 + y_83 + y_85 >= 1
 c_1_84: y_8 + y_25 + y_26 + y_31 + y_45 + y_57 + y_75 + y_84 + y_91 + y_96
   + y_98 >= 1
 c_1_85: y_0 + y_7 + y_30 + y_49 + y_62 + y_76 + y_77 + y_81 + y_83 + y_85
   >= 1
 c_1_86: y_1 + y_2 + y_9 + y_16 + y_19 + y_20 + y_23 + y_28 + y_35 + y_39
   + y_53 + y_56 + y_61 + y_65 + y_66 + y_68 + y_78 + y_86 + y_90 + y_92
   >= 1
 c_1_87: y_19 + y_23 + y_44 + y_47 + y_53 + y_60 + y_61 + y_66 + y_87
   + y_92 + y_94 >= 1
 c_1_88: y_12 + y_13 + y_14 + y_21 + y_26 + y_34 + y_38 + y_45 + y_52
   + y_72 + y_80 + y_88 + y_89 + y_95 >= 1
 c_1_89: y_12 + y_14 + y_26 + y_32 + y_34 + y_41 + y_52 + y_72 + y_79
   + y_80 + y_88 + y_89 + y_95 >= 1
 c_1_90: y_1 + y_2 + y_3 + y_9 + y_28 + y_35 + y_39 + y_56 + y_68 + y_74
   + y_78 + y_86 + y_90 >= 1
 c_1_91: y_8 + y_26 + y_31 + y_41 + y_45 + y_67 + y_72 + y_84 + y_91 + y_96
   + y_98 >= 1
 c_1_92: y_16 + y_19 + y_20 + y_23 + y_28 + y_39 + y_50 + y_53 + y_60
   + y_61 + y_66 + y_68 + y_86 + y_87 + y_92 >= 1
 c_1_93: y_4 + y_7 + y_41 + y_42 + y_51 + y_67 + y_93 + y_96 + y_97 >= 1
 c_1_94: y_16 + y_19 + y_23 + y_32 + y_37 + y_44 + y_46 + y_47 + y_53
   + y_60 + y_61 + y_66 + y_87 + y_94 >= 1
 c_1_95: y_12 + y_13 + y_14 + y_21 + y_33 + y_34 + y_38 + y_52 + y_72
   + y_80 + y_88 + y_89 + y_95 >= 1
 c_1_96: y_8 + y_26 + y_41 + y_42 + y_51 + y_67 + y_72 + y_79 + y_84 + y_91
   + y_93 + y_96 + y_98 >= 1
 c_1_97: y_2 + y_4 + y_35 + y_41 + y_42 + y_46 + y_48 + y_51 + y_56 + y_67
   + y_78 + y_93 + y_97 >= 1
 c_1_98: y_8 + y_25 + y_26 + y_31 + y_45 + y_57 + y_58 + y_75 + y_84 + y_91
   + y_96 + y_98 >= 1
 c_1_99: y_11 + y_43 + y_57 + y_58 + y_99 >= 1
Bounds
 Constant = 1
Binaries
 y_0 y_1 y_2 y_3 y_4 y_5 y_6 y_7 y_8 y_9 y_10 y_11 y_12 y_13 y_14 y_15 y_16
 y_17 y_18 y_19 y_20 y_21 y_22 y_23 y_24 y_25 y_26 y_27 y_28 y_29 y_30 y_31
 y_32 y_33 y_34 y_35 y_36 y_37 y_38 y_39 y_40 y_41 y_42 y_43 y_44 y_45 y_46
 y_47 y_48 y_49 y_50 y_51 y_52 y_53 y_54 y_55 y_56 y_57 y_58 y_59 y_60 y_61
 y_62 y_63 y_64 y_65 y_66 y_67 y_68 y_69 y_70 y_71 y_72 y_73 y_74 y_75 y_76
 y_77 y_78 y_79 y_80 y_81 y_82 y_83 y_84 y_85 y_86 y_87 y_88 y_89 y_90 y_91
 y_92 y_93 y_94 y_95 y_96 y_97 y_98 y_99
End
